Minimize
  .67 x01 + .67 x10 + .67 x12 + .67 x21 + .67 x23 + .67 x32 + .67 x34 + .67 x43 + .67 x40 + .67 x04 + .67 x03 + .67 x30
  + [1 c01 * x10 * x02] + c01 1 x10 x03 + c01 1 x10 x04
  + c01 1 x20 x01 + c01 1 x20 x03 + c01 1 x20 x04
  + c01 1 x30 x01 + c01 1 x30 x02 + c01 1 x30 x04
  + c01 1 x40 x01 + c01 1 x40 x02 + c01 1 x40 x03

  + c21 1 x02 x21 + c21 1 x02 x23 + c21 1 x02 x24
  + c21 1 x12 x20 + c21 1 x12 x23 + c21 1 x12 x24
  + c21 1 x32 x20 + c21 1 x32 x21 + c21 1 x32 x24
  + c21 1 x42 x20 + c21 1 x42 x21 + c21 1 x42 x23

  + c31 2 x03 x31 + c31 2 x03 x32 + c31 2 x03 x34
  + c31 2 x13 x30 + c31 2 x13 x32 + c31 2 x13 x34
  + c31 2 x23 x30 + c31 2 x23 x31 + c31 2 x23 x34
  + c31 2 x43 x30 + c31 2 x43 x31 + c31 2 x43 x32

  + c41 2 x04 x41 + c41 2 x04 x42 + c41 2 x04 x43
  + c41 2 x14 x40 + c41 2 x14 x42 + c41 2 x14 x43
  + c41 2 x24 x40 + c41 2 x24 x41 + c41 2 x24 x43
  + c41 2 x34 x40 + c41 2 x34 x41 + c41 2 x34 x42

  + c04 1 x10 x02 + c04 1 x10 x03 + c04 1 x10 x04
  + c04 1 x20 x01 + c04 1 x20 x03 + c04 1 x20 x04
  + c04 1 x30 x01 + c04 1 x30 x02 + c04 1 x30 x04
  + c04 1 x40 x01 + c04 1 x40 x02 + c04 1 x40 x03

  + c14 2 x01 x12 + c14 2 x01 x13 + c14 2 x01 x14
  + c14 2 x21 x10 + c14 2 x21 x13 + c14 2 x21 x14
  + c14 2 x31 x10 + c14 2 x31 x12 + c14 2 x31 x14
  + c14 2 x41 x10 + c14 2 x41 x11 + c14 2 x41 x12

  + c24 1 x02 x21 + c24 1 x02 x23 + c24 1 x02 x24
  + c24 1 x12 x20 + c24 1 x12 x23 + c24 1 x12 x24
  + c24 1 x32 x20 + c24 1 x32 x21 + c24 1 x32 x24
  + c24 1 x42 x20 + c24 1 x42 x21 + c24 1 x42 x23

  + c34 2 x03 x31 + c34 2 x03 x32 + c34 2 x03 x34
  + c34 2 x13 x30 + c34 2 x13 x32 + c34 2 x13 x34
  + c34 2 x23 x30 + c34 2 x23 x31 + c34 2 x23 x34
  + c34 2 x43 x30 + c34 2 x43 x31 + c34 2 x43 x32

  + c11 0 [ x01 + x11 + x21 + x31 + x41 ] [ x10 + x11 + x12 + x13 + x14 ]
  + c21 1 [ x02 + x12 + x22 + x32 + x42 ] [ x20 + x21 + x22 + x23 + x24 ]
  + c31 2 [ x03 + x13 + x23 + x33 + x43 ] [ x30 + x31 + x32 + x33 + x34 ]
  + c41 2 [ x04 + x14 + x24 + x34 + x44 ] [ x40 + x41 + x42 + x43 + x44 ]
  + c04 1 [ x00 + x10 + x20 + x30 + x40 ] [ x00 + x01 + x02 + x03 + x04 ]
  + c14 2 [ x01 + x11 + x21 + x31 + x41 ] [ x10 + x11 + x12 + x13 + x14 ]
  + c24 2 [ x02 + x12 + x22 + x32 + x42 ] [ x20 + x21 + x22 + x23 + x24 ]
  + c34 1 [ x03 + x13 + x23 + x33 + x43 ] [ x30 + x31 + x32 + x33 + x34 ]
  + c44 0 [ x04 + x14 + x24 + x34 + x44 ] [ x40 + x41 + x42 + x43 + x44 ]
Subject To
  c01 + c11 + c21 + c31 + c41 = 1
  c04 + c14 + c24 + c34 + c44 = 1
  x10 + x20 + x30 + x40 = 1
  x01 + x02 + x03 + x04 = 1
  x01 + x21 + x31 + x41 = 1
  x10 + x12 + x13 + x14 = 1
  x02 + x12 + x32 + x42 = 1
  x20 + x21 + x23 + x24 = 1
  x03 + x13 + x23 + x43 = 1
  x30 + x31 + x32 + x34 = 1
  x04 + x14 + x24 + x34 = 1
  x40 + x41 + x42 + x43 = 1
  u1 - u2 + 5 x12 <= 4
  u1 - u3 + 5 x13 <= 4
  u1 - u4 + 5 x14 <= 4
  u2 - u1 + 5 x21 <= 4
  u2 - u3 + 5 x23 <= 4
  u2 - u4 + 5 x24 <= 4
  u3 - u1 + 5 x31 <= 4
  u3 - u2 + 5 x32 <= 4
  u3 - u4 + 5 x34 <= 4
  u4 - u1 + 5 x41 <= 4
  u4 - u2 + 5 x42 <= 4
  u4 - u3 + 5 x43 <= 4
Bounds
  x11 = 0
  x00 = 0
  x22 = 0
  x33 = 0
  x44 = 0
Binary
  x00 x01 x02 x03 x04 x10 x11 x12 x13 x14 x20 x21 x22 x23 x24 x30 x31 x32 x33 x34 x40 x41 x42 x43 x44
  c01 c11 c21 c31 c41 c04 c14 c24 c34 c44
Integers
  u1 u2 u3 u4
End